NAME /Users/henri/Research/solvers/instances/idol-instances/robust/collection/spp_dkp_Lefebvre_et_al_2026/shortest_path_4_4/uncertainty_sets/discrete_knapsack
ROWS
 N  OBJ
 L  primal_lower
COLUMNS
    MARKER    'MARKER'                 'INTORG'
    y[0,1]     OBJ        0
    y[0,1]     primal_lower -7.52
    y[0,2]     OBJ        0
    y[0,2]     primal_lower -6.09
    y[0,3]     OBJ        0
    y[0,3]     primal_lower -2.39
    y[1,0]     OBJ        0
    y[1,0]     primal_lower -7.28
    y[1,3]     OBJ        0
    y[1,3]     primal_lower -3.01
    y[2,0]     OBJ        0
    y[2,0]     primal_lower -9
    y[2,3]     OBJ        0
    y[2,3]     primal_lower -0.41
    y[3,0]     OBJ        0
    y[3,0]     primal_lower -4.23
    y[3,1]     OBJ        0
    y[3,1]     primal_lower -8.76
    y[3,2]     OBJ        0
    y[3,2]     primal_lower -4.37
    u[0,1]     OBJ        0
    u[0,1]     primal_lower 14
    u[0,2]     OBJ        0
    u[0,2]     primal_lower 72
    u[0,3]     OBJ        0
    u[0,3]     primal_lower 54
    u[1,0]     OBJ        0
    u[1,0]     primal_lower 85
    u[1,3]     OBJ        0
    u[1,3]     primal_lower 84
    u[2,0]     OBJ        0
    u[2,0]     primal_lower 58
    u[2,3]     OBJ        0
    u[2,3]     primal_lower 77
    u[3,0]     OBJ        0
    u[3,0]     primal_lower 22
    u[3,1]     OBJ        0
    u[3,1]     primal_lower 82
    u[3,2]     OBJ        0
    u[3,2]     primal_lower 96
    MARKER    'MARKER'                 'INTEND'
RHS
    RHS       primal_lower 96
BOUNDS
 LI BND       y[0,1]     0
 UI BND       y[0,1]     1
 LI BND       y[0,2]     0
 UI BND       y[0,2]     1
 LI BND       y[0,3]     0
 UI BND       y[0,3]     1
 LI BND       y[1,0]     0
 UI BND       y[1,0]     1
 LI BND       y[1,3]     0
 UI BND       y[1,3]     1
 LI BND       y[2,0]     0
 UI BND       y[2,0]     1
 LI BND       y[2,3]     0
 UI BND       y[2,3]     1
 LI BND       y[3,0]     0
 UI BND       y[3,0]     1
 LI BND       y[3,1]     0
 UI BND       y[3,1]     1
 LI BND       y[3,2]     0
 UI BND       y[3,2]     1
 LI BND       u[0,1]     0
 UI BND       u[0,1]     1
 LI BND       u[0,2]     0
 UI BND       u[0,2]     1
 LI BND       u[0,3]     0
 UI BND       u[0,3]     1
 LI BND       u[1,0]     0
 UI BND       u[1,0]     1
 LI BND       u[1,3]     0
 UI BND       u[1,3]     1
 LI BND       u[2,0]     0
 UI BND       u[2,0]     1
 LI BND       u[2,3]     0
 UI BND       u[2,3]     1
 LI BND       u[3,0]     0
 UI BND       u[3,0]     1
 LI BND       u[3,1]     0
 UI BND       u[3,1]     1
 LI BND       u[3,2]     0
 UI BND       u[3,2]     1
ENDATA
